********************************************************************************
Probe Values Report, written on Thu Mar 14 00:08:01 2019

Source
-------

   ODB: C:/ABAQUS2/IterativeDesign/FieldOutpit.odb
   Step: StepUno
   Frame: Increment      6: Step Time =    1.000
   Variable: S, Mises (Not averaged)

Loc 1 : Centroidal values

Probe values reported at element centroid

  Part Instance  Element ID        Type  Attached nodes
--------------------------------------------------------------------------------
     PLATE-1           1       C3D8R         126         101           1          95         599         574         474         568
     PLATE-1           2       C3D8R           2          90         112          89         475         563         585         562
     PLATE-1           3       C3D8R         103           5           4          74         576         478         477         547
     PLATE-1           4       C3D8R         389         109         168         181         862         582         641         654
     PLATE-1           5       C3D8R         106          75          11          10         579         548         484         483
     PLATE-1           6       C3D8R         393          76           9         118         866         549         482         591
     PLATE-1           7       C3D8R         391          77           5         103         864         550         478         576
     PLATE-1           8       C3D8R           7           6         113          78         480         479         586         551
     PLATE-1           9       C3D8R          78         100          94           7         551         573         567         480
     PLATE-1          10       C3D8R         395         169         138          79         868         642         611         552
     PLATE-1          11       C3D8R         169         407         420         183         642         880         893         656
     PLATE-1          12       C3D8R         414          80          22          79         887         553         495         552
     PLATE-1          13       C3D8R         415         104         414         416         888         577         887         889
     PLATE-1          14       C3D8R         176         144         124         158         649         617         597         631
     PLATE-1          15       C3D8R         403          32          31         117         876         505         504         590
     PLATE-1          16       C3D8R          30          81         108         402         503         554         581         875
     PLATE-1          17       C3D8R          84          81          30          29         557         554         503         502
     PLATE-1          18       C3D8R         115          82          14          13         588         555         487         486
     PLATE-1          19       C3D8R         181          54          53         389         654         527         526         862
     PLATE-1          20       C3D8R         389          53         105          83         862         526         578         556
     PLATE-1          21       C3D8R         255         430         150         185         728         903         623         658
     PLATE-1          22       C3D8R         183         201         138         169         656         674         611         642
     PLATE-1          23       C3D8R           1           8         122          95         474         481         595         568
     PLATE-1          24       C3D8R           2           1         101          90         475         474         574         563
     PLATE-1          25       C3D8R         362         458         467         330         835         931         940         803
     PLATE-1          26       C3D8R         163         184         160         152         636         657         633         625
     PLATE-1          27       C3D8R         207         139          91         116         680         612         564         589
     PLATE-1          28       C3D8R          93          18          17          99         566         491         490         572
     PLATE-1          29       C3D8R           9          76         106          10         482         549         579         483
     PLATE-1          30       C3D8R         131         110          28          86         604         583         501         559
     PLATE-1          31       C3D8R         445         459         302         256         918         932         775         729
     PLATE-1          32       C3D8R          86         148         157         131         559         621         630         604
     PLATE-1          33       C3D8R          28          27         148          86         501         500         621         559
     PLATE-1          34       C3D8R         254         225         221         413         727         698         694         886
     PLATE-1          35       C3D8R          29          28         110          84         502         501         583         557
     PLATE-1          36       C3D8R         430         162         129         150         903         635         602         623
     PLATE-1          37       C3D8R         100         143         172         158         573         616         645         631
     PLATE-1          38       C3D8R         157         178         215         191         630         651         688         664
     PLATE-1          39       C3D8R         148          27          26          85         621         500         499         558
     PLATE-1          40       C3D8R          32          97          98          25         505         570         571         498
     PLATE-1          41       C3D8R         202         170          97         186         675         643         570         659
     PLATE-1          42       C3D8R          30         402         117          31         503         875         590         504
     PLATE-1          43       C3D8R         402         108         400         401         875         581         873         874
     PLATE-1          44       C3D8R          15         392          73          16         488         865         546         489
     PLATE-1          45       C3D8R          88         127         145         392         561         600         618         865
     PLATE-1          46       C3D8R         392          15          14          88         865         488         487         561
     PLATE-1          47       C3D8R          12          83         105          13         485         556         578         486
     PLATE-1          48       C3D8R          54         181          55          35         527         654         528         508
     PLATE-1          49       C3D8R         102         114          74         390         575         587         547         863
     PLATE-1          50       C3D8R         151          89         112         134         624         562         585         607
     PLATE-1          51       C3D8R           2          89         390           3         475         562         863         476
     PLATE-1          52       C3D8R         151         102         390          89         624         575         863         562
     PLATE-1          53       C3D8R         442         208         420         421         915         681         893         894
     PLATE-1          54       C3D8R          64          63         377         387         537         536         850         860
     PLATE-1          55       C3D8R          65         387         386          66         538         860         859         539
     PLATE-1          56       C3D8R         387          65          36          64         860         538         509         537
     PLATE-1          57       C3D8R         443         243         245         442         916         716         718         915
     PLATE-1          58       C3D8R          19          91         394          20         492         564         867         493
     PLATE-1          59       C3D8R          19          92         116          91         492         565         589         564
     PLATE-1          60       C3D8R          93          92          19          18         566         565         492         491
     PLATE-1          61       C3D8R         116          92          93         140         589         565         566         613
     PLATE-1          62       C3D8R          72         398          37          33         545         871         510         506
     PLATE-1          63       C3D8R          99          17          24         121         572         490         497         594
     PLATE-1          64       C3D8R         118           9          16          96         591         482         489         569
     PLATE-1          65       C3D8R         146         118          96         128         619         591         569         601
     PLATE-1          66       C3D8R         403         186          97          32         876         659         570         505
     PLATE-1          67       C3D8R         113           6           5          77         586         479         478         550
     PLATE-1          68       C3D8R         137         106          76         135         610         579         549         608
     PLATE-1          69       C3D8R          12          11          75          83         485         484         548         556
     PLATE-1          70       C3D8R         185         150         114         133         658         623         587         606
     PLATE-1          71       C3D8R         391         103         406         142         864         576         879         615
     PLATE-1          72       C3D8R         122           8           7          94         595         481         480         567
     PLATE-1          73       C3D8R         395          79          22          21         868         552         495         494
     PLATE-1          74       C3D8R         119          23          22          80         592         496         495         553
     PLATE-1          75       C3D8R          38          37         104         415         511         510         577         888
     PLATE-1          76       C3D8R         108          81          84          47         581         554         557         520
     PLATE-1          77       C3D8R         130          88          14          82         603         561         487         555
     PLATE-1          78       C3D8R          53         115          13         105         526         588         486         578
     PLATE-1          79       C3D8R          87         111          85          26         560         584         558         499
     PLATE-1          80       C3D8R         141         123          78         113         614         596         551         586
     PLATE-1          81       C3D8R          48         110         131         405         521         583         604         878
     PLATE-1          82       C3D8R         170         202         193         399         643         675         666         872
     PLATE-1          83       C3D8R          98          87          26          25         571         560         499         498
     PLATE-1          84       C3D8R         153         127          88         130         626         600         561         603
     PLATE-1          85       C3D8R           3         390          74           4         476         863         547         477
     PLATE-1          86       C3D8R         165         134         112         149         638         607         585         622
     PLATE-1          87       C3D8R         147         177         426         205         620         650         899         678
     PLATE-1          88       C3D8R          99          71         140          93         572         544         613         566
     PLATE-1          89       C3D8R         126          95         122         404         599         568         595         877
     PLATE-1          90       C3D8R         149         112          90         132         622         585         563         605
     PLATE-1          91       C3D8R         152         139         207         163         625         612         680         636
     PLATE-1          92       C3D8R         120          96          16          73         593         569         489         546
     PLATE-1          93       C3D8R          76         393         164         135         549         866         637         608
     PLATE-1          94       C3D8R          72         121          24         398         545         594         497         871
     PLATE-1          95       C3D8R         179         111          87         193         652         584         560         666
     PLATE-1          96       C3D8R         399          98          97         170         872         571         570         643
     PLATE-1          97       C3D8R          71          99         121          72         544         572         594         545
     PLATE-1          98       C3D8R         147         205         161         101         620         678         634         574
     PLATE-1          99       C3D8R         177         147         101         126         650         620         574         599
     PLATE-1         100       C3D8R         151         133         114         102         624         606         587         575
     PLATE-1         101       C3D8R         141         113          77         125         614         586         550         598
     PLATE-1         102       C3D8R          38         415         416         138         511         888         889         611
     PLATE-1         103       C3D8R         106         137         109          75         579         610         582         548
     PLATE-1         104       C3D8R         164         154         137         135         637         627         610         608
     PLATE-1         105       C3D8R         139         107         394          91         612         580         867         564
     PLATE-1         106       C3D8R         107         136         395         394         580         609         868         867
     PLATE-1         107       C3D8R          34         400         108          47         507         873         581         520
     PLATE-1         108       C3D8R         181         168          56          55         654         641         529         528
     PLATE-1         109       C3D8R         389          83          75         109         862         556         548         582
     PLATE-1         110       C3D8R          47          84         110          48         520         557         583         521
     PLATE-1         111       C3D8R         191         405         131         157         664         878         604         630
     PLATE-1         112       C3D8R         165         149         206         204         638         622         679         677
     PLATE-1         113       C3D8R         123         143         100          78         596         616         573         551
     PLATE-1         114       C3D8R         129         406         103          74         602         879         576         547
     PLATE-1         115       C3D8R          74         114         150         129         547         587         623         602
     PLATE-1         116       C3D8R         115         397         130          82         588         870         603         555
     PLATE-1         117       C3D8R         401         403         117         402         874         876         590         875
     PLATE-1         118       C3D8R         272         454         447         257         745         927         920         730
     PLATE-1         119       C3D8R          96         120         410         128         569         593         883         601
     PLATE-1         120       C3D8R         144         122          94         124         617         595         567         597
     PLATE-1         121       C3D8R          94         100         158         124         567         573         631         597
     PLATE-1         122       C3D8R         298         258         446         230         771         731         919         703
     PLATE-1         123       C3D8R         249         176         158         194         722         649         631         667
     PLATE-1         124       C3D8R         156         125          77         391         629         598         550         864
     PLATE-1         125       C3D8R          90         101         161         132         563         574         634         605
     PLATE-1         126       C3D8R         127         153         167         145         600         626         640         618
     PLATE-1         127       C3D8R         175         164         393         417         648         637         866         890
     PLATE-1         128       C3D8R          51         196         397          52         524         669         870         525
     PLATE-1         129       C3D8R         291         242         426         271         764         715         899         744
     PLATE-1         130       C3D8R          59         200         165         204         532         673         638         677
     PLATE-1         131       C3D8R         249         218         422         176         722         691         895         649
     PLATE-1         132       C3D8R         109         137         154         168         582         610         627         641
     PLATE-1         133       C3D8R          79         138         416         414         552         611         889         887
     PLATE-1         134       C3D8R         138         201          39          38         611         674         512         511
     PLATE-1         135       C3D8R         435         163         207         203         908         636         680         676
     PLATE-1         136       C3D8R         139         152         136         107         612         625         609         580
     PLATE-1         137       C3D8R         372         140          71          70         845         613         544         543
     PLATE-1         138       C3D8R         436         143         123         155         909         616         596         628
     PLATE-1         139       C3D8R         156         171         141         125         629         644         614         598
     PLATE-1         140       C3D8R         406         429         449         142         879         902         922         615
     PLATE-1         141       C3D8R         240         221         193         202         713         694         666         675
     PLATE-1         142       C3D8R         425         146         128         159         898         619         601         632
     PLATE-1         143       C3D8R          58          57         238         396         531         530         711         869
     PLATE-1         144       C3D8R          49          48         405         220         522         521         878         693
     PLATE-1         145       C3D8R         166         148          85         111         639         621         558         584
     PLATE-1         146       C3D8R         129         162         429         406         602         635         902         879
     PLATE-1         147       C3D8R         252         198         430         255         725         671         903         728
     PLATE-1         148       C3D8R         134         165         133         151         607         638         606         624
     PLATE-1         149       C3D8R         136         407         169         395         609         880         642         868
     PLATE-1         150       C3D8R         216         440         180         219         689         913         653         692
     PLATE-1         151       C3D8R         182         238          57          56         655         711         530         529
     PLATE-1         152       C3D8R         449         217         432         187         922         690         905         660
     PLATE-1         153       C3D8R         229         250         280         215         702         723         753         688
     PLATE-1         154       C3D8R         171         155         123         141         644         628         596         614
     PLATE-1         155       C3D8R         173         156         391         142         646         629         864         615
     PLATE-1         156       C3D8R         441         167         153         440         914         640         626         913
     PLATE-1         157       C3D8R         178         157         148         166         651         630         621         639
     PLATE-1         158       C3D8R         128         410         174         159         601         883         647         632
     PLATE-1         159       C3D8R         146         425         175         417         619         898         648         890
     PLATE-1         160       C3D8R         244         184         163         435         717         657         636         908
     PLATE-1         161       C3D8R         160         407         136         152         633         880         609         625
     PLATE-1         162       C3D8R         288         333         269         265         761         806         742         738
     PLATE-1         163       C3D8R         206         149         132         161         679         622         605         634
     PLATE-1         164       C3D8R         426         242         264         205         899         715         737         678
     PLATE-1         165       C3D8R         429         162         217         449         902         635         690         922
     PLATE-1         166       C3D8R         205         264         206         161         678         737         679         634
     PLATE-1         167       C3D8R         311         290         330         467         784         763         803         940
     PLATE-1         168       C3D8R         116         140         372         207         589         613         845         680
     PLATE-1         169       C3D8R         146         417         393         118         619         890         866         591
     PLATE-1         170       C3D8R         199         182         154         164         672         655         627         637
     PLATE-1         171       C3D8R         209         178         166         190         682         651         639         663
     PLATE-1         172       C3D8R         197         174         410         167         670         647         883         640
     PLATE-1         173       C3D8R          46          45         202         186         519         518         675         659
     PLATE-1         174       C3D8R         179         190         166         111         652         663         639         584
     PLATE-1         175       C3D8R         168         154         182          56         641         627         655         529
     PLATE-1         176       C3D8R         193          87          98         399         666         560         571         872
     PLATE-1         177       C3D8R         326         299         323         448         799         772         796         921
     PLATE-1         178       C3D8R         143         436         189         172         616         909         662         645
     PLATE-1         179       C3D8R         210         171         156         188         683         644         629         661
     PLATE-1         180       C3D8R         120         145         167         410         593         618         640         883
     PLATE-1         181       C3D8R         212         425         159         192         685         898         632         665
     PLATE-1         182       C3D8R         423         175         425         212         896         648         898         685
     PLATE-1         183       C3D8R         238         182         199         226         711         655         672         699
     PLATE-1         184       C3D8R         126         404         195         177         599         877         668         650
     PLATE-1         185       C3D8R         198         217         162         430         671         690         635         903
     PLATE-1         186       C3D8R         427         190         179         225         900         663         652         698
     PLATE-1         187       C3D8R         180         196         236         219         653         669         709         692
     PLATE-1         188       C3D8R         183         420         208         224         656         893         681         697
     PLATE-1         189       C3D8R         227          60          59         204         700         533         532         677
     PLATE-1         190       C3D8R         265         245         243         428         738         718         716         901
     PLATE-1         191       C3D8R         165         200         185         133         638         673         658         606
     PLATE-1         192       C3D8R         401          46         186         403         874         519         659         876
     PLATE-1         193       C3D8R         257         431         173         211         730         904         646         684
     PLATE-1         194       C3D8R         255         226         231         252         728         699         704         725
     PLATE-1         195       C3D8R         173         431         188         156         646         904         661         629
     PLATE-1         196       C3D8R         210         233         189         436         683         706         662         909
     PLATE-1         197       C3D8R         194         158         172         214         667         631         645         687
     PLATE-1         198       C3D8R         229         215         178         209         702         688         651         682
     PLATE-1         199       C3D8R         191         215         280         418         664         688         753         891
     PLATE-1         200       C3D8R         213         192         159         174         686         665         632         647
     PLATE-1         201       C3D8R         199         164         175         423         672         637         648         896
     PLATE-1         202       C3D8R          44         268         260         240         517         741         733         713
     PLATE-1         203       C3D8R         413         260         313         434         886         733         786         907
     PLATE-1         204       C3D8R         195         404         408         422         668         877         881         895
     PLATE-1         205       C3D8R         397         196         180         409         870         669         653         882
     PLATE-1         206       C3D8R         234         197         167         441         707         670         640         914
     PLATE-1         207       C3D8R         396         200          59          58         869         673         532         531
     PLATE-1         208       C3D8R         201         246          40          39         674         719         513         512
     PLATE-1         209       C3D8R         183         224         246         201         656         697         719         674
     PLATE-1         210       C3D8R          44         240         202          45         517         713         675         518
     PLATE-1         211       C3D8R         160         184         223         421         633         657         696         894
     PLATE-1         212       C3D8R         385          61          60         227         858         534         533         700
     PLATE-1         213       C3D8R         331         308         242         291         804         781         715         764
     PLATE-1         214       C3D8R         264         227         204         206         737         700         677         679
     PLATE-1         215       C3D8R         460         203         375         350         933         676         848         823
     PLATE-1         216       C3D8R         241         427         225         254         714         900         698         727
     PLATE-1         217       C3D8R         233         248         172         189         706         721         645         662
     PLATE-1         218       C3D8R         432         211         173         187         905         684         646         660
     PLATE-1         219       C3D8R         188         431         230         446         661         904         703         919
     PLATE-1         220       C3D8R         444         213         174         197         917         686         647         670
     PLATE-1         221       C3D8R         253         212         192         232         726         685         665         705
     PLATE-1         222       C3D8R         240         260         413         221         713         733         886         694
     PLATE-1         223       C3D8R         275         214         172         248         748         687         645         721
     PLATE-1         224       C3D8R         220         405         191         418         693         878         664         891
     PLATE-1         225       C3D8R         198         228         432         217         671         701         905         690
     PLATE-1         226       C3D8R         222         177         195         239         695         650         668         712
     PLATE-1         227       C3D8R          50         247         262         236         523         720         735         709
     PLATE-1         228       C3D8R         220         247          50          49         693         720         523         522
     PLATE-1         229       C3D8R         237         219         236         262         710         692         709         735
     PLATE-1         230       C3D8R         193         221         225         179         666         694         698         652
     PLATE-1         231       C3D8R         271         426         177         222         744         899         650         695
     PLATE-1         232       C3D8R         309         334         338         343         782         807         811         816
     PLATE-1         233       C3D8R          41          40         246         333         514         513         719         806
     PLATE-1         234       C3D8R         316         294         273         293         789         767         746         766
     PLATE-1         235       C3D8R         375         203         207         372         848         676         680         845
     PLATE-1         236       C3D8R         282         437         427         241         755         910         900         714
     PLATE-1         237       C3D8R         282         241         254         303         755         714         727         776
     PLATE-1         238       C3D8R         255         396         238         226         728         869         711         699
     PLATE-1         239       C3D8R          61         385         365          62         534         858         838         535
     PLATE-1         240       C3D8R         272         257         211         251         745         730         684         724
     PLATE-1         241       C3D8R         199         423         231         226         672         896         704         699
     PLATE-1         242       C3D8R         210         258         279         261         683         731         752         734
     PLATE-1         243       C3D8R         447         230         431         257         920         703         904         730
     PLATE-1         244       C3D8R         292         455         305         471         765         928         778         944
     PLATE-1         245       C3D8R         253         231         423         212         726         704         896         685
     PLATE-1         246       C3D8R         259         232         192         213         732         705         665         686
     PLATE-1         247       C3D8R         441         440         216         234         914         913         689         707
     PLATE-1         248       C3D8R         267         235         194         214         740         708         667         687
     PLATE-1         249       C3D8R         306         289         311         328         779         762         784         801
     PLATE-1         250       C3D8R         196          51          50         236         669         524         523         709
     PLATE-1         251       C3D8R         263         216         219         237         736         689         692         710
     PLATE-1         252       C3D8R         285         234         216         263         758         707         689         736
     PLATE-1         253       C3D8R         195         422         218         239         668         895         691         712
     PLATE-1         254       C3D8R         331         352         335         308         804         825         808         781
     PLATE-1         255       C3D8R         332         312         349         360         805         785         822         833
     PLATE-1         256       C3D8R         442         245         224         208         915         718         697         681
     PLATE-1         257       C3D8R         243         443         223         266         716         916         696         739
     PLATE-1         258       C3D8R         290         311         289         266         763         784         762         739
     PLATE-1         259       C3D8R         245         265         269         224         718         738         742         697
     PLATE-1         260       C3D8R         296         465         326         341         769         938         799         814
     PLATE-1         261       C3D8R         329         351         333         288         802         824         806         761
     PLATE-1         262       C3D8R         274         249         194         235         747         722         667         708
     PLATE-1         263       C3D8R         276         270         239         218         749         743         712         691
     PLATE-1         264       C3D8R         301         250         229         256         774         723         702         729
     PLATE-1         265       C3D8R         432         228         251         211         905         701         724         684
     PLATE-1         266       C3D8R         456         252         231         253         929         725         704         726
     PLATE-1         267       C3D8R         294         275         248         273         767         748         721         746
     PLATE-1         268       C3D8R         200         396         255         185         673         869         728         658
     PLATE-1         269       C3D8R         317         322         307         301         790         795         780         774
     PLATE-1         270       C3D8R         451         233         210         261         924         706         683         734
     PLATE-1         271       C3D8R         452         305         455         444         925         778         928         917
     PLATE-1         272       C3D8R         272         456         253         283         745         929         726         756
     PLATE-1         273       C3D8R         380         287         268         383         853         760         741         856
     PLATE-1         274       C3D8R         313         260         268         287         786         733         741         760
     PLATE-1         275       C3D8R         293         273         451         278         766         746         924         751
     PLATE-1         276       C3D8R         263         237         419         286         736         710         892         759
     PLATE-1         277       C3D8R         305         452         234         285         778         925         707         758
     PLATE-1         278       C3D8R         227         264         335         385         700         737         808         858
     PLATE-1         279       C3D8R         363         352         331         353         836         825         804         826
     PLATE-1         280       C3D8R         218         249         274         276         691         722         747         749
     PLATE-1         281       C3D8R         332         291         271         312         805         764         744         785
     PLATE-1         282       C3D8R         184         244         266         223         657         717         739         696
     PLATE-1         283       C3D8R         450         267         214         275         923         740         687         748
     PLATE-1         284       C3D8R         326         465         235         267         799         938         708         740
     PLATE-1         285       C3D8R         383         268          44          43         856         741         517         516
     PLATE-1         286       C3D8R         333         246         224         269         806         719         697         742
     PLATE-1         287       C3D8R         222         239         284         271         695         712         757         744
     PLATE-1         288       C3D8R         292         277         447         454         765         750         920         927
     PLATE-1         289       C3D8R         345         347         327         356         818         820         800         829
     PLATE-1         290       C3D8R         233         451         273         248         706         924         746         721
     PLATE-1         291       C3D8R         465         296         462         281         938         769         935         754
     PLATE-1         292       C3D8R         239         270         309         284         712         743         782         757
     PLATE-1         293       C3D8R         228         456         272         251         701         929         745         724
     PLATE-1         294       C3D8R         454         272         283         466         927         745         756         939
     PLATE-1         295       C3D8R         336         279         258         298         809         752         731         771
     PLATE-1         296       C3D8R         278         451         261         297         751         924         734         770
     PLATE-1         297       C3D8R         314         321         354         336         787         794         827         809
     PLATE-1         298       C3D8R         220         418         280         247         693         891         753         720
     PLATE-1         299       C3D8R         237         262         300         419         710         735         773         892
     PLATE-1         300       C3D8R         433         300         280         250         906         773         753         723
     PLATE-1         301       C3D8R         357         324         338         334         830         797         811         807
     PLATE-1         302       C3D8R         281         274         235         465         754         747         708         938
     PLATE-1         303       C3D8R         232         466         283         253         705         939         756         726
     PLATE-1         304       C3D8R         271         284         325         312         744         757         798         785
     PLATE-1         305       C3D8R         259         455         292         457         732         928         765         930
     PLATE-1         306       C3D8R         286         304         285         263         759         777         758         736
     PLATE-1         307       C3D8R         411         380         383         382         884         853         856         855
     PLATE-1         308       C3D8R         313         319         303         434         786         792         776         907
     PLATE-1         309       C3D8R         428         243         266         289         901         716         739         762
     PLATE-1         310       C3D8R         289         306         310         428         762         779         783         901
     PLATE-1         311       C3D8R         291         332         353         331         764         805         826         804
     PLATE-1         312       C3D8R         460         290         266         244         933         763         739         717
     PLATE-1         313       C3D8R         308         335         264         242         781         808         737         715
     PLATE-1         314       C3D8R         314         336         298         277         787         809         771         750
     PLATE-1         315       C3D8R         356         469         320         345         829         942         793         818
     PLATE-1         316       C3D8R         318         295         462         296         791         768         935         769
     PLATE-1         317       C3D8R         276         462         295         270         749         935         768         743
     PLATE-1         318       C3D8R         339         464         473         364         812         937         946         837
     PLATE-1         319       C3D8R         276         274         281         462         749         747         754         935
     PLATE-1         320       C3D8R         472         463         316         293         945         936         789         766
     PLATE-1         321       C3D8R         279         315         297         261         752         788         770         734
     PLATE-1         322       C3D8R         447         277         298         230         920         750         771         703
     PLATE-1         323       C3D8R         358         319         384         367         831         792         857         840
     PLATE-1         324       C3D8R         299         450         275         294         772         923         748         767
     PLATE-1         325       C3D8R         280         300         262         247         753         773         735         720
     PLATE-1         326       C3D8R         317         301         256         302         790         774         729         775
     PLATE-1         327       C3D8R         473         464         323         316         946         937         796         789
     PLATE-1         328       C3D8R         303         254         413         434         776         727         886         907
     PLATE-1         329       C3D8R         471         305         321         314         944         778         794         787
     PLATE-1         330       C3D8R         471         314         277         292         944         787         750         765
     PLATE-1         331       C3D8R         428         310         288         265         901         783         761         738
     PLATE-1         332       C3D8R         433         307         419         300         906         780         892         773
     PLATE-1         333       C3D8R         340         304         286         322         813         777         759         795
     PLATE-1         334       C3D8R         385         335         352         365         858         808         825         838
     PLATE-1         335       C3D8R         334         309         270         295         807         782         743         768
     PLATE-1         336       C3D8R         468         349         312         325         941         822         785         798
     PLATE-1         337       C3D8R         355         369         359         368         828         842         832         841
     PLATE-1         338       C3D8R         381         373         350         375         854         846         823         848
     PLATE-1         339       C3D8R         338         328         346         343         811         801         819         816
     PLATE-1         340       C3D8R         382         376         412         411         855         849         885         884
     PLATE-1         341       C3D8R         411         424         378         380         884         897         851         853
     PLATE-1         342       C3D8R         299         294         316         323         772         767         789         796
     PLATE-1         343       C3D8R         354         315         279         336         827         788         752         809
     PLATE-1         344       C3D8R         285         304         321         305         758         777         794         778
     PLATE-1         345       C3D8R         297         342         327         278         770         815         800         751
     PLATE-1         346       C3D8R         354         340         366         342         827         813         839         815
     PLATE-1         347       C3D8R         319         345         320         303         792         818         793         776
     PLATE-1         348       C3D8R         320         461         282         303         793         934         755         776
     PLATE-1         349       C3D8R         302         459         469         470         775         932         942         943
     PLATE-1         350       C3D8R         419         307         322         286         892         780         795         759
     PLATE-1         351       C3D8R         354         321         304         340         827         794         777         813
     PLATE-1         352       C3D8R         299         326         267         450         772         799         740         923
     PLATE-1         353       C3D8R         448         339         369         355         921         812         842         828
     PLATE-1         354       C3D8R         344         310         306         324         817         783         779         797
     PLATE-1         355       C3D8R         344         329         288         310         817         802         761         783
     PLATE-1         356       C3D8R         346         348         349         468         819         821         822         941
     PLATE-1         357       C3D8R         343         325         284         309         816         798         757         782
     PLATE-1         358       C3D8R         323         464         339         448         796         937         812         921
     PLATE-1         359       C3D8R         357         318         296         341         830         791         769         814
     PLATE-1         360       C3D8R         463         347         358         337         936         820         831         810
     PLATE-1         361       C3D8R         328         338         324         306         801         811         797         779
     PLATE-1         362       C3D8R         328         361         348         346         801         834         821         819
     PLATE-1         363       C3D8R         330         350         373         362         803         823         846         835
     PLATE-1         364       C3D8R         460         350         330         290         933         823         803         763
     PLATE-1         365       C3D8R         438         374         363         353         911         847         836         826
     PLATE-1         366       C3D8R         374         438         362         373         847         911         835         846
     PLATE-1         367       C3D8R         357         334         295         318         830         807         768         791
     PLATE-1         368       C3D8R          62         365         377          63         535         838         850         536
     PLATE-1         369       C3D8R         297         315         354         342         770         788         827         815
     PLATE-1         370       C3D8R         319         358         347         345         792         831         820         818
     PLATE-1         371       C3D8R         448         355         341         326         921         828         814         799
     PLATE-1         372       C3D8R         453         371         379         364         926         844         852         837
     PLATE-1         373       C3D8R         317         366         340         322         790         839         813         795
     PLATE-1         374       C3D8R         344         324         357         368         817         797         830         841
     PLATE-1         375       C3D8R         325         343         346         468         798         816         819         941
     PLATE-1         376       C3D8R         370         351         329         359         843         824         802         832
     PLATE-1         377       C3D8R         356         366         470         469         829         839         943         942
     PLATE-1         378       C3D8R         467         361         328         311         940         834         801         784
     PLATE-1         379       C3D8R         337         473         316         463         810         946         789         936
     PLATE-1         380       C3D8R         472         327         347         463         945         800         820         936
     PLATE-1         381       C3D8R         361         467         458         348         834         940         931         821
     PLATE-1         382       C3D8R         438         353         332         360         911         826         805         833
     PLATE-1         383       C3D8R          41         333         351         376         514         806         824         849
     PLATE-1         384       C3D8R         371         424         370         379         844         897         843         852
     PLATE-1         385       C3D8R         360         458         362         438         833         931         835         911
     PLATE-1         386       C3D8R         355         368         357         341         828         841         830         814
     PLATE-1         387       C3D8R         342         366         356         327         815         839         829         800
     PLATE-1         388       C3D8R         337         358         367         453         810         831         840         926
     PLATE-1         389       C3D8R         368         359         329         344         841         832         802         817
     PLATE-1         390       C3D8R         379         370         359         369         852         843         832         842
     PLATE-1         391       C3D8R         349         348         458         360         822         821         931         833
     PLATE-1         392       C3D8R         363         377         365         352         836         850         838         825
     PLATE-1         393       C3D8R          66         386         388          67         539         859         861         540
     PLATE-1         394       C3D8R         382          42          41         376         855         515         514         849
     PLATE-1         395       C3D8R         287         384         319         313         760         857         792         786
     PLATE-1         396       C3D8R         424         371         453         367         897         844         926         840
     PLATE-1         397       C3D8R         379         369         339         364         852         842         812         837
     PLATE-1         398       C3D8R         370         424         411         412         843         897         884         885
     PLATE-1         399       C3D8R         375         372          70          69         848         845         543         542
     PLATE-1         400       C3D8R         381         388         374         373         854         861         847         846
     PLATE-1         401       C3D8R         381         375          69          68         854         848         542         541
     PLATE-1         402       C3D8R          68          67         388         381         541         540         861         854
     PLATE-1         403       C3D8R         386         387         377         363         859         860         850         836
     PLATE-1         404       C3D8R         287         380         378         384         760         853         851         857
     PLATE-1         405       C3D8R         383          43          42         382         856         516         515         855
     PLATE-1         406       C3D8R         424         367         384         378         897         840         857         851
     PLATE-1         407       C3D8R         388         386         363         374         861         859         836         847
     PLATE-1         408       C3D8R         395          21          20         394         868         494         493         867
     PLATE-1         409       C3D8R          80         414         104         119         553         887         577         592
     PLATE-1         410       C3D8R         440         153         409         180         913         626         882         653
     PLATE-1         411       C3D8R         397         409         153         130         870         882         626         603
     PLATE-1         412       C3D8R         119         398          24          23         592         871         497         496
     PLATE-1         413       C3D8R         397         115          53          52         870         588         526         525
     PLATE-1         414       C3D8R         401         400          34          46         874         873         507         519
     PLATE-1         415       C3D8R         408         404         122         144         881         877         595         617
     PLATE-1         416       C3D8R         392         145         120          73         865         618         593         546
     PLATE-1         417       C3D8R         376         351         370         412         849         824         843         885
     PLATE-1         418       C3D8R         104          37         398         119         577         510         871         592
     PLATE-1         419       C3D8R         421         420         407         160         894         893         880         633
     PLATE-1         420       C3D8R         437         209         190         427         910         682         663         900
     PLATE-1         421       C3D8R         144         176         422         408         617         649         895         881
     PLATE-1         422       C3D8R         187         173         142         449         660         646         615         922
     PLATE-1         423       C3D8R         250         301         307         433         723         774         780         906
     PLATE-1         424       C3D8R         439         229         209         437         912         702         682         910
     PLATE-1         425       C3D8R         155         171         210         436         628         644         683         909
     PLATE-1         426       C3D8R         437         282         461         439         910         755         934         912
     PLATE-1         427       C3D8R         445         256         229         439         918         729         702         912
     PLATE-1         428       C3D8R         443         442         421         223         916         915         894         696
     PLATE-1         429       C3D8R         452         444         197         234         925         917         670         707
     PLATE-1         430       C3D8R         444         455         259         213         917         928         732         686
     PLATE-1         431       C3D8R         258         210         188         446         731         683         661         919
     PLATE-1         432       C3D8R         364         473         337         453         837         946         810         926
     PLATE-1         433       C3D8R         459         445         439         461         932         918         912         934
     PLATE-1         434       C3D8R         456         228         198         252         929         701         671         725
     PLATE-1         435       C3D8R         457         466         232         259         930         939         705         732
     PLATE-1         436       C3D8R         320         469         459         461         793         942         932         934
     PLATE-1         437       C3D8R         457         292         454         466         930         765         927         939
     PLATE-1         438       C3D8R         244         435         203         460         717         908         676         933
     PLATE-1         439       C3D8R         302         470         366         317         775         943         839         790
     PLATE-1         440       C3D8R         293         278         327         472         766         751         800         945


  Part Instance  Element ID        Type        S, Mises
--------------------------------------------------------------------------------
     PLATE-1           1       C3D8R     7.00000E+07
     PLATE-1           2       C3D8R     7.00000E+07
     PLATE-1           3       C3D8R     7.00000E+07
     PLATE-1           4       C3D8R     1.13241E+07
     PLATE-1           5       C3D8R     4.64668E+07
     PLATE-1           6       C3D8R     4.03012E+07
     PLATE-1           7       C3D8R     7.00000E+07
     PLATE-1           8       C3D8R     7.00000E+07
     PLATE-1           9       C3D8R     7.00000E+07
     PLATE-1          10       C3D8R     1.93594E+07
     PLATE-1          11       C3D8R     1.94077E+07
     PLATE-1          12       C3D8R     3.26735E+07
     PLATE-1          13       C3D8R     2.27793E+07
     PLATE-1          14       C3D8R     3.71259E+07
     PLATE-1          15       C3D8R     3.87173E+07
     PLATE-1          16       C3D8R     1.81427E+07
     PLATE-1          17       C3D8R     1.81661E+07
     PLATE-1          18       C3D8R     1.16915E+07
     PLATE-1          19       C3D8R     1.07332E+07
     PLATE-1          20       C3D8R     1.65505E+07
     PLATE-1          21       C3D8R     4.16030E+07
     PLATE-1          22       C3D8R     1.26503E+07
     PLATE-1          23       C3D8R     7.00000E+07
     PLATE-1          24       C3D8R     7.00000E+07
     PLATE-1          25       C3D8R     1.74332E+07
     PLATE-1          26       C3D8R     2.77118E+07
     PLATE-1          27       C3D8R     3.58106E+07
     PLATE-1          28       C3D8R     3.17282E+07
     PLATE-1          29       C3D8R     5.52553E+07
     PLATE-1          30       C3D8R     2.38808E+07
     PLATE-1          31       C3D8R     3.07680E+07
     PLATE-1          32       C3D8R     2.68551E+07
     PLATE-1          33       C3D8R     4.02503E+07
     PLATE-1          34       C3D8R     2.59809E+07
     PLATE-1          35       C3D8R     1.96707E+07
     PLATE-1          36       C3D8R     4.55637E+07
     PLATE-1          37       C3D8R     5.51073E+07
     PLATE-1          38       C3D8R     2.47579E+07
     PLATE-1          39       C3D8R     5.06441E+07
     PLATE-1          40       C3D8R     5.63637E+07
     PLATE-1          41       C3D8R     2.03345E+07
     PLATE-1          42       C3D8R     3.41066E+07
     PLATE-1          43       C3D8R     2.18638E+07
     PLATE-1          44       C3D8R     5.04993E+07
     PLATE-1          45       C3D8R     3.74399E+07
     PLATE-1          46       C3D8R     3.27947E+07
     PLATE-1          47       C3D8R     1.75377E+07
     PLATE-1          48       C3D8R     3.18826E+06
     PLATE-1          49       C3D8R     7.00000E+07
     PLATE-1          50       C3D8R     7.00000E+07
     PLATE-1          51       C3D8R     7.00000E+07
     PLATE-1          52       C3D8R     7.00000E+07
     PLATE-1          53       C3D8R     2.15900E+07
     PLATE-1          54       C3D8R     6.05079E+05
     PLATE-1          55       C3D8R     4.64780E+05
     PLATE-1          56       C3D8R     8.45682E+04
     PLATE-1          57       C3D8R     2.07639E+07
     PLATE-1          58       C3D8R     5.70696E+07
     PLATE-1          59       C3D8R     4.77447E+07
     PLATE-1          60       C3D8R     4.38192E+07
     PLATE-1          61       C3D8R     3.09600E+07
     PLATE-1          62       C3D8R     1.18549E+07
     PLATE-1          63       C3D8R     2.23333E+07
     PLATE-1          64       C3D8R     5.42974E+07
     PLATE-1          65       C3D8R     2.56201E+07
     PLATE-1          66       C3D8R     3.01831E+07
     PLATE-1          67       C3D8R     7.00000E+07
     PLATE-1          68       C3D8R     2.13154E+07
     PLATE-1          69       C3D8R     2.35410E+07
     PLATE-1          70       C3D8R     5.48125E+07
     PLATE-1          71       C3D8R     2.10535E+07
     PLATE-1          72       C3D8R     7.00000E+07
     PLATE-1          73       C3D8R     4.65613E+07
     PLATE-1          74       C3D8R     3.94808E+07
     PLATE-1          75       C3D8R     1.43559E+07
     PLATE-1          76       C3D8R     1.84157E+07
     PLATE-1          77       C3D8R     2.14660E+07
     PLATE-1          78       C3D8R     1.22390E+07
     PLATE-1          79       C3D8R     5.02198E+07
     PLATE-1          80       C3D8R     6.96049E+07
     PLATE-1          81       C3D8R     1.14167E+07
     PLATE-1          82       C3D8R     2.18476E+07
     PLATE-1          83       C3D8R     5.80649E+07
     PLATE-1          84       C3D8R     2.64298E+07
     PLATE-1          85       C3D8R     7.00000E+07
     PLATE-1          86       C3D8R     6.24322E+07
     PLATE-1          87       C3D8R     3.60722E+07
     PLATE-1          88       C3D8R     1.91051E+07
     PLATE-1          89       C3D8R     6.94407E+07
     PLATE-1          90       C3D8R     6.96781E+07
     PLATE-1          91       C3D8R     3.28464E+07
     PLATE-1          92       C3D8R     4.41792E+07
     PLATE-1          93       C3D8R     1.71991E+07
     PLATE-1          94       C3D8R     1.98472E+07
     PLATE-1          95       C3D8R     3.83519E+07
     PLATE-1          96       C3D8R     2.43866E+07
     PLATE-1          97       C3D8R     1.87918E+07
     PLATE-1          98       C3D8R     3.52654E+07
     PLATE-1          99       C3D8R     3.81081E+07
     PLATE-1         100       C3D8R     6.83397E+07
     PLATE-1         101       C3D8R     6.92668E+07
     PLATE-1         102       C3D8R     1.00707E+07
     PLATE-1         103       C3D8R     2.61675E+07
     PLATE-1         104       C3D8R     1.56077E+07
     PLATE-1         105       C3D8R     5.22574E+07
     PLATE-1         106       C3D8R     4.21418E+07
     PLATE-1         107       C3D8R     1.22672E+07
     PLATE-1         108       C3D8R     4.03211E+06
     PLATE-1         109       C3D8R     2.06155E+07
     PLATE-1         110       C3D8R     1.62963E+07
     PLATE-1         111       C3D8R     1.87998E+07
     PLATE-1         112       C3D8R     5.08476E+07
     PLATE-1         113       C3D8R     6.94235E+07
     PLATE-1         114       C3D8R     6.20737E+07
     PLATE-1         115       C3D8R     6.56564E+07
     PLATE-1         116       C3D8R     1.37425E+07
     PLATE-1         117       C3D8R     2.08456E+07
     PLATE-1         118       C3D8R     2.19444E+07
     PLATE-1         119       C3D8R     3.57453E+07
     PLATE-1         120       C3D8R     6.97288E+07
     PLATE-1         121       C3D8R     6.97494E+07
     PLATE-1         122       C3D8R     3.41887E+07
     PLATE-1         123       C3D8R     5.06794E+07
     PLATE-1         124       C3D8R     5.25125E+07
     PLATE-1         125       C3D8R     6.95297E+07
     PLATE-1         126       C3D8R     2.52776E+07
     PLATE-1         127       C3D8R     2.09362E+07
     PLATE-1         128       C3D8R     1.29928E+07
     PLATE-1         129       C3D8R     1.75474E+07
     PLATE-1         130       C3D8R     3.93410E+07
     PLATE-1         131       C3D8R     4.85128E+07
     PLATE-1         132       C3D8R     1.12476E+07
     PLATE-1         133       C3D8R     1.79711E+07
     PLATE-1         134       C3D8R     7.24066E+06
     PLATE-1         135       C3D8R     2.71147E+07
     PLATE-1         136       C3D8R     3.36704E+07
     PLATE-1         137       C3D8R     1.73945E+07
     PLATE-1         138       C3D8R     4.96765E+07
     PLATE-1         139       C3D8R     5.17319E+07
     PLATE-1         140       C3D8R     4.14082E+07
     PLATE-1         141       C3D8R     1.88915E+07
     PLATE-1         142       C3D8R     2.34695E+07
     PLATE-1         143       C3D8R     2.17246E+07
     PLATE-1         144       C3D8R     6.93032E+06
     PLATE-1         145       C3D8R     4.27685E+07
     PLATE-1         146       C3D8R     4.59682E+07
     PLATE-1         147       C3D8R     2.75641E+07
     PLATE-1         148       C3D8R     5.69061E+07
     PLATE-1         149       C3D8R     2.39080E+07
     PLATE-1         150       C3D8R     1.93802E+07
     PLATE-1         151       C3D8R     8.31645E+06
     PLATE-1         152       C3D8R     3.22480E+07
     PLATE-1         153       C3D8R     2.46574E+07
     PLATE-1         154       C3D8R     4.08156E+07
     PLATE-1         155       C3D8R     2.63716E+07
     PLATE-1         156       C3D8R     2.46045E+07
     PLATE-1         157       C3D8R     3.17717E+07
     PLATE-1         158       C3D8R     2.49940E+07
     PLATE-1         159       C3D8R     2.07434E+07
     PLATE-1         160       C3D8R     2.89239E+07
     PLATE-1         161       C3D8R     3.13652E+07
     PLATE-1         162       C3D8R     1.01391E+07
     PLATE-1         163       C3D8R     5.55816E+07
     PLATE-1         164       C3D8R     1.49346E+07
     PLATE-1         165       C3D8R     2.95382E+07
     PLATE-1         166       C3D8R     4.25786E+07
     PLATE-1         167       C3D8R     2.18471E+07
     PLATE-1         168       C3D8R     2.45114E+07
     PLATE-1         169       C3D8R     1.89588E+07
     PLATE-1         170       C3D8R     1.45711E+07
     PLATE-1         171       C3D8R     3.33955E+07
     PLATE-1         172       C3D8R     2.77872E+07
     PLATE-1         173       C3D8R     1.59351E+07
     PLATE-1         174       C3D8R     3.71136E+07
     PLATE-1         175       C3D8R     6.93121E+06
     PLATE-1         176       C3D8R     3.02099E+07
     PLATE-1         177       C3D8R     2.29283E+07
     PLATE-1         178       C3D8R     5.23730E+07
     PLATE-1         179       C3D8R     4.83014E+07
     PLATE-1         180       C3D8R     3.15260E+07
     PLATE-1         181       C3D8R     2.16811E+07
     PLATE-1         182       C3D8R     1.93941E+07
     PLATE-1         183       C3D8R     1.69022E+07
     PLATE-1         184       C3D8R     3.82588E+07
     PLATE-1         185       C3D8R     3.70058E+07
     PLATE-1         186       C3D8R     3.43449E+07
     PLATE-1         187       C3D8R     1.26496E+07
     PLATE-1         188       C3D8R     1.70467E+07
     PLATE-1         189       C3D8R     3.66297E+07
     PLATE-1         190       C3D8R     1.79942E+07
     PLATE-1         191       C3D8R     4.32413E+07
     PLATE-1         192       C3D8R     1.82640E+07
     PLATE-1         193       C3D8R     2.44662E+07
     PLATE-1         194       C3D8R     2.61621E+07
     PLATE-1         195       C3D8R     3.48798E+07
     PLATE-1         196       C3D8R     4.45625E+07
     PLATE-1         197       C3D8R     4.41227E+07
     PLATE-1         198       C3D8R     2.90942E+07
     PLATE-1         199       C3D8R     2.00026E+07
     PLATE-1         200       C3D8R     2.35090E+07
     PLATE-1         201       C3D8R     1.70314E+07
     PLATE-1         202       C3D8R     9.03622E+06
     PLATE-1         203       C3D8R     1.95024E+07
     PLATE-1         204       C3D8R     5.10772E+07
     PLATE-1         205       C3D8R     1.46869E+07
     PLATE-1         206       C3D8R     2.67194E+07
     PLATE-1         207       C3D8R     3.60990E+07
     PLATE-1         208       C3D8R     1.03036E+07
     PLATE-1         209       C3D8R     1.06402E+07
     PLATE-1         210       C3D8R     5.29032E+06
     PLATE-1         211       C3D8R     2.73920E+07
     PLATE-1         212       C3D8R     2.00600E+07
     PLATE-1         213       C3D8R     1.50822E+07
     PLATE-1         214       C3D8R     2.90615E+07
     PLATE-1         215       C3D8R     1.91436E+07
     PLATE-1         216       C3D8R     2.95272E+07
     PLATE-1         217       C3D8R     4.11714E+07
     PLATE-1         218       C3D8R     9.49551E+06
     PLATE-1         219       C3D8R     3.71498E+07
     PLATE-1         220       C3D8R     2.50763E+07
     PLATE-1         221       C3D8R     1.98642E+07
     PLATE-1         222       C3D8R     1.90710E+07
     PLATE-1         223       C3D8R     3.63548E+07
     PLATE-1         224       C3D8R     1.28197E+07
     PLATE-1         225       C3D8R     2.28839E+07
     PLATE-1         226       C3D8R     2.24568E+07
     PLATE-1         227       C3D8R     7.90118E+06
     PLATE-1         228       C3D8R     3.32412E+06
     PLATE-1         229       C3D8R     1.50226E+07
     PLATE-1         230       C3D8R     2.81536E+07
     PLATE-1         231       C3D8R     1.21249E+07
     PLATE-1         232       C3D8R     2.13354E+07
     PLATE-1         233       C3D8R     1.29134E+07
     PLATE-1         234       C3D8R     2.88004E+07
     PLATE-1         235       C3D8R     2.14196E+07
     PLATE-1         236       C3D8R     3.20394E+07
     PLATE-1         237       C3D8R     2.90006E+07
     PLATE-1         238       C3D8R     2.54688E+07
     PLATE-1         239       C3D8R     8.52157E+06
     PLATE-1         240       C3D8R     1.93563E+07
     PLATE-1         241       C3D8R     1.99675E+07
     PLATE-1         242       C3D8R     3.79394E+07
     PLATE-1         243       C3D8R     2.69509E+07
     PLATE-1         244       C3D8R     2.72590E+07
     PLATE-1         245       C3D8R     2.07119E+07
     PLATE-1         246       C3D8R     2.31182E+07
     PLATE-1         247       C3D8R     2.23842E+07
     PLATE-1         248       C3D8R     3.16653E+07
     PLATE-1         249       C3D8R     2.31424E+07
     PLATE-1         250       C3D8R     9.55971E+06
     PLATE-1         251       C3D8R     1.98082E+07
     PLATE-1         252       C3D8R     2.44589E+07
     PLATE-1         253       C3D8R     4.84230E+07
     PLATE-1         254       C3D8R     1.62683E+07
     PLATE-1         255       C3D8R     1.76001E+07
     PLATE-1         256       C3D8R     1.59069E+07
     PLATE-1         257       C3D8R     2.44024E+07
     PLATE-1         258       C3D8R     2.25794E+07
     PLATE-1         259       C3D8R     1.50241E+07
     PLATE-1         260       C3D8R     2.27342E+07
     PLATE-1         261       C3D8R     8.53261E+06
     PLATE-1         262       C3D8R     3.06359E+07
     PLATE-1         263       C3D8R     3.45807E+07
     PLATE-1         264       C3D8R     2.90319E+07
     PLATE-1         265       C3D8R     2.13476E+07
     PLATE-1         266       C3D8R     2.06875E+07
     PLATE-1         267       C3D8R     3.24799E+07
     PLATE-1         268       C3D8R     3.01812E+07
     PLATE-1         269       C3D8R     2.91305E+07
     PLATE-1         270       C3D8R     3.95959E+07
     PLATE-1         271       C3D8R     2.68626E+07
     PLATE-1         272       C3D8R     2.07080E+07
     PLATE-1         273       C3D8R     1.20698E+07
     PLATE-1         274       C3D8R     1.54572E+07
     PLATE-1         275       C3D8R     3.26653E+07
     PLATE-1         276       C3D8R     2.28708E+07
     PLATE-1         277       C3D8R     2.71698E+07
     PLATE-1         278       C3D8R     2.30562E+07
     PLATE-1         279       C3D8R     1.07143E+07
     PLATE-1         280       C3D8R     4.19381E+07
     PLATE-1         281       C3D8R     1.53330E+07
     PLATE-1         282       C3D8R     2.45380E+07
     PLATE-1         283       C3D8R     3.36428E+07
     PLATE-1         284       C3D8R     2.59779E+07
     PLATE-1         285       C3D8R     8.37896E+06
     PLATE-1         286       C3D8R     1.03903E+07
     PLATE-1         287       C3D8R     2.33831E+07
     PLATE-1         288       C3D8R     2.70257E+07
     PLATE-1         289       C3D8R     2.90476E+07
     PLATE-1         290       C3D8R     3.68466E+07
     PLATE-1         291       C3D8R     2.34928E+07
     PLATE-1         292       C3D8R     2.27633E+07
     PLATE-1         293       C3D8R     1.82607E+07
     PLATE-1         294       C3D8R     1.91804E+07
     PLATE-1         295       C3D8R     3.54343E+07
     PLATE-1         296       C3D8R     3.45475E+07
     PLATE-1         297       C3D8R     3.31872E+07
     PLATE-1         298       C3D8R     1.37386E+07
     PLATE-1         299       C3D8R     1.87377E+07
     PLATE-1         300       C3D8R     2.21573E+07
     PLATE-1         301       C3D8R     2.38890E+07
     PLATE-1         302       C3D8R     3.53375E+07
     PLATE-1         303       C3D8R     2.19907E+07
     PLATE-1         304       C3D8R     1.74533E+07
     PLATE-1         305       C3D8R     2.50380E+07
     PLATE-1         306       C3D8R     2.66682E+07
     PLATE-1         307       C3D8R     1.01221E+07
     PLATE-1         308       C3D8R     2.32400E+07
     PLATE-1         309       C3D8R     2.24659E+07
     PLATE-1         310       C3D8R     1.99812E+07
     PLATE-1         311       C3D8R     1.37069E+07
     PLATE-1         312       C3D8R     2.46816E+07
     PLATE-1         313       C3D8R     2.31083E+07
     PLATE-1         314       C3D8R     3.03612E+07
     PLATE-1         315       C3D8R     2.99960E+07
     PLATE-1         316       C3D8R     2.70680E+07
     PLATE-1         317       C3D8R     2.67503E+07
     PLATE-1         318       C3D8R     1.92456E+07
     PLATE-1         319       C3D8R     3.08834E+07
     PLATE-1         320       C3D8R     2.73182E+07
     PLATE-1         321       C3D8R     3.68187E+07
     PLATE-1         322       C3D8R     3.38153E+07
     PLATE-1         323       C3D8R     2.02508E+07
     PLATE-1         324       C3D8R     2.84918E+07
     PLATE-1         325       C3D8R     1.57613E+07
     PLATE-1         326       C3D8R     3.01844E+07
     PLATE-1         327       C3D8R     2.15836E+07
     PLATE-1         328       C3D8R     2.61813E+07
     PLATE-1         329       C3D8R     2.99819E+07
     PLATE-1         330       C3D8R     2.94495E+07
     PLATE-1         331       C3D8R     1.61682E+07
     PLATE-1         332       C3D8R     2.34129E+07
     PLATE-1         333       C3D8R     2.95188E+07
     PLATE-1         334       C3D8R     1.27337E+07
     PLATE-1         335       C3D8R     2.87411E+07
     PLATE-1         336       C3D8R     1.84091E+07
     PLATE-1         337       C3D8R     1.19634E+07
     PLATE-1         338       C3D8R     1.34593E+07
     PLATE-1         339       C3D8R     2.51014E+07
     PLATE-1         340       C3D8R     8.36368E+06
     PLATE-1         341       C3D8R     1.19801E+07
     PLATE-1         342       C3D8R     2.60291E+07
     PLATE-1         343       C3D8R     3.44340E+07
     PLATE-1         344       C3D8R     2.84835E+07
     PLATE-1         345       C3D8R     3.30066E+07
     PLATE-1         346       C3D8R     3.26148E+07
     PLATE-1         347       C3D8R     2.68045E+07
     PLATE-1         348       C3D8R     2.95869E+07
     PLATE-1         349       C3D8R     3.05699E+07
     PLATE-1         350       C3D8R     2.57590E+07
     PLATE-1         351       C3D8R     3.07924E+07
     PLATE-1         352       C3D8R     2.41716E+07
     PLATE-1         353       C3D8R     1.56807E+07
     PLATE-1         354       C3D8R     1.92323E+07
     PLATE-1         355       C3D8R     1.34668E+07
     PLATE-1         356       C3D8R     2.36684E+07
     PLATE-1         357       C3D8R     2.66236E+07
     PLATE-1         358       C3D8R     1.89409E+07
     PLATE-1         359       C3D8R     2.13250E+07
     PLATE-1         360       C3D8R     2.40924E+07
     PLATE-1         361       C3D8R     2.02304E+07
     PLATE-1         362       C3D8R     1.79850E+07
     PLATE-1         363       C3D8R     1.81751E+07
     PLATE-1         364       C3D8R     2.03575E+07
     PLATE-1         365       C3D8R     1.16296E+07
     PLATE-1         366       C3D8R     1.19146E+07
     PLATE-1         367       C3D8R     1.95762E+07
     PLATE-1         368       C3D8R     2.65008E+06
     PLATE-1         369       C3D8R     3.32165E+07
     PLATE-1         370       C3D8R     2.46873E+07
     PLATE-1         371       C3D8R     1.84597E+07
     PLATE-1         372       C3D8R     1.45220E+07
     PLATE-1         373       C3D8R     3.04849E+07
     PLATE-1         374       C3D8R     1.67045E+07
     PLATE-1         375       C3D8R     1.79181E+07
     PLATE-1         376       C3D8R     7.61692E+06
     PLATE-1         377       C3D8R     3.16296E+07
     PLATE-1         378       C3D8R     2.20701E+07
     PLATE-1         379       C3D8R     2.38834E+07
     PLATE-1         380       C3D8R     2.77314E+07
     PLATE-1         381       C3D8R     2.19873E+07
     PLATE-1         382       C3D8R     1.38977E+07
     PLATE-1         383       C3D8R     1.11624E+07
     PLATE-1         384       C3D8R     1.14792E+07
     PLATE-1         385       C3D8R     1.75345E+07
     PLATE-1         386       C3D8R     1.75477E+07
     PLATE-1         387       C3D8R     3.13203E+07
     PLATE-1         388       C3D8R     2.01200E+07
     PLATE-1         389       C3D8R     1.23555E+07
     PLATE-1         390       C3D8R     1.00052E+07
     PLATE-1         391       C3D8R     1.68021E+07
     PLATE-1         392       C3D8R     7.34114E+06
     PLATE-1         393       C3D8R     2.08207E+06
     PLATE-1         394       C3D8R     1.45972E+07
     PLATE-1         395       C3D8R     1.91632E+07
     PLATE-1         396       C3D8R     1.50832E+07
     PLATE-1         397       C3D8R     1.49935E+07
     PLATE-1         398       C3D8R     8.98192E+06
     PLATE-1         399       C3D8R     1.48916E+07
     PLATE-1         400       C3D8R     9.90756E+06
     PLATE-1         401       C3D8R     1.00539E+07
     PLATE-1         402       C3D8R     5.22557E+06
     PLATE-1         403       C3D8R     3.72069E+06
     PLATE-1         404       C3D8R     1.50811E+07
     PLATE-1         405       C3D8R     1.31164E+07
     PLATE-1         406       C3D8R     1.45945E+07
     PLATE-1         407       C3D8R     6.35786E+06
     PLATE-1         408       C3D8R     5.86873E+07
     PLATE-1         409       C3D8R     2.05185E+07
     PLATE-1         410       C3D8R     1.93201E+07
     PLATE-1         411       C3D8R     1.84720E+07
     PLATE-1         412       C3D8R     2.05847E+07
     PLATE-1         413       C3D8R     1.41323E+07
     PLATE-1         414       C3D8R     1.26319E+07
     PLATE-1         415       C3D8R     6.45835E+07
     PLATE-1         416       C3D8R     3.58917E+07
     PLATE-1         417       C3D8R     7.92945E+06
     PLATE-1         418       C3D8R     2.22956E+07
     PLATE-1         419       C3D8R     2.32873E+07
     PLATE-1         420       C3D8R     3.27832E+07
     PLATE-1         421       C3D8R     6.18537E+07
     PLATE-1         422       C3D8R     2.09478E+07
     PLATE-1         423       C3D8R     2.66078E+07
     PLATE-1         424       C3D8R     3.12091E+07
     PLATE-1         425       C3D8R     5.70315E+07
     PLATE-1         426       C3D8R     3.15894E+07
     PLATE-1         427       C3D8R     3.03071E+07
     PLATE-1         428       C3D8R     2.21705E+07
     PLATE-1         429       C3D8R     2.57275E+07
     PLATE-1         430       C3D8R     2.48547E+07
     PLATE-1         431       C3D8R     4.16949E+07
     PLATE-1         432       C3D8R     1.81260E+07
     PLATE-1         433       C3D8R     3.12157E+07
     PLATE-1         434       C3D8R     2.63954E+07
     PLATE-1         435       C3D8R     2.14325E+07
     PLATE-1         436       C3D8R     3.04553E+07
     PLATE-1         437       C3D8R     2.49551E+07
     PLATE-1         438       C3D8R     2.40024E+07
     PLATE-1         439       C3D8R     3.09540E+07
     PLATE-1         440       C3D8R     3.10053E+07


